Features/ForMiniZinc/benchmark_puzzles/benchmarks4x4/45/puzzle15.dzn
S = 4;
start = [|0,0,0,16,6,10,3,0,0,13,4,0,11,15,12,7|
0,6,0,1,0,0,12,0,0,0,0,3,0,5,10,4|
0,11,0,0,8,4,14,16,10,0,0,0,1,0,2,0|
10,7,4,12,0,11,15,0,6,0,2,0,13,0,8,0|
0,0,0,5,4,9,13,0,0,0,10,0,0,8,0,16|
16,0,12,0,14,0,8,11,15,4,9,0,0,6,5,0|
4,9,0,14,12,0,0,5,0,3,8,0,15,0,0,1|
0,8,11,10,0,1,7,15,0,6,0,0,0,3,0,2|
3,10,7,6,2,15,0,0,0,0,0,11,14,4,0,9|
14,12,0,0,0,0,9,0,13,0,0,15,0,16,3,10|
0,0,0,0,1,14,0,0,0,7,3,10,5,13,0,0|
0,16,0,11,3,0,4,0,0,0,0,0,7,2,0,0|
0,4,1,0,10,13,0,8,3,9,15,0,6,12,0,14|
0,15,10,0,7,5,0,14,11,0,0,12,0,1,0,0|
0,14,0,8,9,12,1,0,7,5,6,0,2,10,13,15|
0,13,2,3,0,0,6,0,1,10,14,8,0,11,0,5|];